# 3d metal relaxaction

# initilizing EAM and boundry conditions

units		metal
boundary	p p p

# reading data file containing the configuration

read_data Al_alloy.lmpdat

# defining potentials and other parameters

pair_style	eam
pair_coeff	* * AL_O.eam

# Delta t 
timestep 0.0005 

neighbor	0.3 bin
neigh_modify	delay 5

# dumping configurations at timesteps
dump mydump all custom 100000000 /dump_files/confdump.*.data id type x y z vx vy vz

dump_modify mydump sort id

# set numerical integrator
## NVE; default is velocity Verlet
fix nve1 all nve 


run 1000000000