# 3d metal relaxaction

# initilizing EAM and boundry conditions

units		metal
boundary	p p p

# reading data file containing the configuration

read_data Al_alloy.lmpdat

# defining potentials and other parameters

pair_style	eam/alloy
pair_coeff	* * Al.eam Al

# Delta t 
timestep 0.0005 

neighbor	0.3 bin
neigh_modify	delay 5

# dumping configurations at timesteps
dump mydump all custom 2000000 confdump.*.data id type x y z vx vy vz
dump_modify mydump sort id
# set numerical integrator
## NVE; default is velocity Verlet
fix 1 all nvt temp 300.0 300.0 $(100.0*dt)
thermo 10000

run 100000000